1670056
50,34,67,7,14,57,8,16,26,44,1,47,19,64,12,53,0,46,3,62,15,58,35,49,27,30,20,2,60,23,11,41,31,55,39,4,18,48,22,59,28,24,29,40,5,63,10,65,25,54,45,33,6,66,37,42,21,51,32,56,17,9,13,43,52,36,61,38
